This is Ipopt version 3.10.0, running with linear solver ma27.

Number of nonzeros in equality constraint Jacobian...:        0
Number of nonzeros in inequality constraint Jacobian.:       48
Number of nonzeros in Lagrangian Hessian.............:        0

Total number of variables............................:        6
                     variables with only lower bounds:        0
                variables with lower and upper bounds:        6
                     variables with only upper bounds:        0
Total number of equality constraints.................:        0
Total number of inequality constraints...............:        8
        inequality constraints with only lower bounds:        0
   inequality constraints with lower and upper bounds:        0
        inequality constraints with only upper bounds:        8

iter    objective    inf_pr   inf_du lg(mu)  ||d||  lg(rg) alpha_du alpha_pr  ls
   0  7.6646587e+00 2.30e+00 1.26e+00   0.0 0.00e+00    -  0.00e+00 0.00e+00   0
   1  9.3190241e+00 1.55e+00 1.05e+01  -0.5 1.50e+00    -  4.77e-01 4.55e-01f  1
   2  9.7584281e+00 7.06e-01 8.23e+00  -0.4 9.68e-01    -  9.22e-01 5.56e-01h  1
   3  1.1760397e+01 5.08e-01 1.44e+01  -0.3 1.07e+00    -  6.91e-01 4.45e-01h  1
   4  1.4082166e+01 1.61e-01 6.86e+00  -0.6 1.34e+00    -  7.50e-01 1.00e+00h  1
   5  1.5149319e+01 3.88e-02 5.02e+00  -1.2 4.50e-01    -  9.98e-01 9.32e-01h  1
   6  1.5281892e+01 1.92e-02 2.75e+00  -2.1 2.44e-01    -  9.99e-01 7.41e-01h  1
   7  1.5128987e+01 1.45e-02 6.10e+00  -2.6 6.45e-01    -  1.00e+00 2.85e-01f  1
   8  1.5234783e+01 6.54e-03 1.12e+00  -3.3 2.18e-01    -  1.00e+00 8.69e-01h  1
   9  1.5393276e+01 0.00e+00 1.83e+00  -2.7 7.56e-02    -  1.00e+00 1.00e+00h  1
iter    objective    inf_pr   inf_du lg(mu)  ||d||  lg(rg) alpha_du alpha_pr  ls
  10  1.5357522e+01 2.76e-04 9.34e-01  -3.9 6.19e-02    -  1.00e+00 1.00e+00h  1
  11  1.5346347e+01 5.37e-04 4.05e-01  -5.5 1.45e-02    -  1.00e+00 9.88e-01h  1
  12  1.5349623e+01 1.99e-04 1.60e-01  -6.8 1.11e-02    -  1.00e+00 1.00e+00h  1
  13  1.5353483e+01 3.81e-04 1.68e-01  -8.2 1.44e-03    -  1.00e+00 1.00e+00h  1
  14  1.5353632e+01 1.34e-04 3.49e-01  -9.8 4.39e-03    -  1.00e+00 1.00e+00h  1
  15  1.5352386e+01 2.03e-05 6.34e-02  -8.6 3.02e-03    -  1.00e+00 1.00e+00H  1
  16  1.5352297e+01 8.21e-05 1.74e-02 -10.4 3.12e-04    -  1.00e+00 2.50e-01h  3
  17  1.5351281e+01 1.64e-04 1.27e-01 -10.7 6.71e-04    -  1.00e+00 1.00e+00h  1
  18  1.5350438e+01 1.65e-04 4.32e-02 -11.0 1.61e-03    -  1.00e+00 1.00e+00H  1
